
Gurobi 12.0.1 (win64) logging started Sat Mar 22 17:42:29 2025

Set parameter LogFile to value "gurobi_log_4.txt"
Set parameter OptimalityTol to value 1e-05
Set parameter BarConvTol to value 1e-05
Set parameter FeasibilityTol to value 1e-05
Set parameter TimeLimit to value 7200
Gurobi Optimizer version 12.0.1 build v12.0.1rc0 (win64 - Windows Server 2019.0 (17763.2))

CPU model: Intel(R) Xeon(R) CPU E5-2667 v4 @ 3.20GHz, instruction set [SSE2|AVX|AVX2]
Thread count: 16 physical cores, 32 logical processors, using up to 32 threads

Non-default parameters:
TimeLimit  7200
FeasibilityTol  1e-05
OptimalityTol  1e-05
BarConvTol  1e-05

Optimize a model with 24300 rows, 16200 columns and 18334197 nonzeros
Model fingerprint: 0x01d908c4
Coefficient statistics:
  Matrix range     [1e-13, 1e+01]
  Objective range  [1e+00, 1e+00]
  Bounds range     [0e+00, 0e+00]
  RHS range        [3e-27, 3e+00]
Presolve removed 9647 rows and 887 columns (presolve time = 7s)...
Presolve removed 9647 rows and 887 columns (presolve time = 11s)...
Presolve removed 10654 rows and 1794 columns (presolve time = 15s)...
Presolve removed 10654 rows and 1794 columns

Concurrent LP optimizer: primal simplex, dual simplex, and barrier
Showing barrier log only...

Ordering time: 1.00s

Barrier statistics:
 Free vars  : 3632
 AA' NZ     : 1.077e+07
 Factor NZ  : 1.805e+07 (roughly 150 MB of memory)
 Factor Ops : 7.096e+10 (roughly 1 second per iteration)
 Threads    : 14

                  Objective                Residual
Iter       Primal          Dual         Primal    Dual     Compl     Time
   0   4.29606857e+04  1.34470247e+00  2.94e+00 4.73e+00  1.13e+01    29s
   1   8.60022781e+03  3.95253570e+01  6.58e-02 3.63e-03  1.18e+00    31s
   2   5.59153532e+02  8.17710031e+01  3.00e-03 2.88e-04  6.55e-02    33s
   3   1.38904844e+02  1.01801617e+02  8.38e-05 4.92e-05  5.09e-03    35s
   4   1.12119436e+02  1.07529179e+02  4.68e-06 3.85e-06  6.30e-04    37s

Barrier performed 4 iterations in 37.71 seconds (29.58 work units)
Barrier solve interrupted - model solved by another algorithm


Solved with dual simplex
Iteration    Objective       Primal Inf.    Dual Inf.      Time
    4440    1.0837025e+02   0.000000e+00   0.000000e+00     40s

Use crossover to convert LP symmetric solution to basic solution...
Crossover log...

Warning: 2 variables dropped from basis

Restart crossover...

    4440 variables added to crossover basis                       60s
    4509 variables added to crossover basis                       60s
   15983 variables added to crossover basis                       65s
   16463 variables added to crossover basis                       70s

    7502 DPushes remaining with DInf 0.0000000e+00                72s
     388 DPushes remaining with DInf 0.0000000e+00                77s
     300 DPushes remaining with DInf 0.0000000e+00                82s

      13 PPushes remaining with PInf 2.2556915e-05                84s
       0 PPushes remaining with PInf 2.2612219e-05                85s

  Push phase complete: Pinf 2.2612219e-05, Dinf 6.2876672e+00     85s

Iteration    Objective       Primal Inf.    Dual Inf.      Time
    4640    1.0837026e+02   0.000000e+00   6.287620e+00     87s
    4654    1.0837026e+02   0.000000e+00   0.000000e+00     91s

Solved in 4654 iterations and 91.11 seconds (54.72 work units)
Optimal objective  1.083702615e+02
